W=5;
H=5;

MAX_TIME=16;
MAX_TRACKS=8;

TARGET=(3,5);

TRAINS=[(4,3,LEFT),(2,2,RIGHT)];
DECOYS=[];

INIT_POS=[
(2,2,STRAIGHT_RL),
(2,3,STRAIGHT_RL),
(3,5,STRAIGHT_RL),
(4,2,STRAIGHT_RL),
(4,3,STRAIGHT_RL),
(1,3,ROCK),
(3,2,ROCK),
];
TUNNEL_PAIRS=[];

GATES=[];
ACTIVATIONS=[];

DSWITCHES=[];

STATIONS=[
  (2,3,2),
  (4,2,1),
];
